p edge 24 63
e 1 2
e 1 3
e 1 4
e 1 9
e 1 11
e 1 12
e 1 13
e 1 17
e 1 19
e 1 22
e 2 5
e 2 8
e 2 10
e 2 13
e 2 16
e 2 18
e 3 4
e 3 7
e 3 14
e 3 21
e 4 7
e 4 8
e 4 14
e 4 15
e 4 19
e 5 6
e 5 7
e 5 8
e 5 9
e 5 18
e 5 20
e 5 23
e 6 8
e 6 13
e 6 22
e 7 9
e 7 13
e 7 14
e 7 15
e 7 20
e 8 18
e 9 11
e 9 12
e 9 13
e 9 17
e 9 20
e 10 11
e 10 12
e 10 21
e 11 12
e 11 13
e 11 16
e 11 22
e 12 20
e 12 22
e 14 15
e 15 20
e 16 20
e 17 18
e 17 19
e 17 23
e 18 24
e 20 22
